N = 6;
Capacity = 20;
nbVehicles = 4;
maxVisitsPerCustomer = 2;
Demand = [31, 3, 7, 6, 5, 25];
Distance = [|
  0, 57, 48, 28, 56, 16, 29
| 57, 0, 47, 79, 87, 52, 84
| 48, 47, 0, 52, 43, 56, 59
| 28, 79, 52, 0, 36, 43, 8
| 56, 87, 43, 36, 0, 71, 44
| 16, 52, 56, 43, 71, 0, 43
| 29, 84, 59, 8, 44, 43, 0
|];
